NAME 
ROWS
 N  OBJ
 L  R0      
 E  R1      
 E  R2      
 E  R3      
 E  R4      
 E  R5      
 E  R6      
 E  R7      
 E  R8      
 E  R9      
 E  R10     
 E  R11     
 E  R12     
 E  R13     
 E  R14     
 E  R15     
COLUMNS
    MARKER    'MARKER'                 'INTORG'
    I0(5)     OBJ       41
    I0(5)     R0        121
    I0(5)     R1        17
    I0(5)     R6        10
    I0(5)     R7        18
    I0(5)     R15       1
    I1(7)     OBJ       86
    I1(7)     R0        -101
    I1(7)     R1        18
    I1(7)     R3        6
    I1(7)     R6        18
    I1(7)     R7        9
    I1(7)     R9        15
    I1(7)     R15       1
    I2(8)     OBJ       -16
    I2(8)     R0        191
    I2(8)     R1        13
    I2(8)     R2        1
    I2(8)     R3        11
    I2(8)     R5        19
    I2(8)     R6        7
    I2(8)     R7        1
    I2(8)     R15       1
    I3(6)     OBJ       180
    I3(6)     R0        -119
    I3(6)     R2        16
    I3(6)     R4        2
    I3(6)     R6        10
    I3(6)     R8        19
    I3(6)     R15       1
    I4(10)    OBJ       -74
    I4(10)    R0        107
    I4(10)    R2        7
    I4(10)    R3        16
    I4(10)    R4        18
    I4(10)    R5        4
    I4(10)    R6        14
    I4(10)    R7        3
    I4(10)    R8        12
    I4(10)    R9        3
    I4(10)    R15       1
    I5(5)     OBJ       149
    I5(5)     R0        -176
    I5(5)     R1        10
    I5(5)     R7        2
    I5(5)     R8        9
    I5(5)     R15       1
    I6(8)     OBJ       -159
    I6(8)     R0        -112
    I6(8)     R1        3
    I6(8)     R2        5
    I6(8)     R4        6
    I6(8)     R5        5
    I6(8)     R7        9
    I6(8)     R9        19
    I6(8)     R15       1
    I7(9)     OBJ       62
    I7(9)     R0        -48
    I7(9)     R1        9
    I7(9)     R2        -1
    I7(9)     R3        -1
    I7(9)     R5        2
    I7(9)     R7        8
    I7(9)     R8        12
    I7(9)     R9        4
    I7(9)     R15       1
    I8(8)     OBJ       -184
    I8(8)     R0        123
    I8(8)     R1        5
    I8(8)     R2        17
    I8(8)     R4        13
    I8(8)     R5        3
    I8(8)     R6        4
    I8(8)     R9        3
    I8(8)     R15       1
    MARKER    'MARKER'                 'INTEND'
    C9(9)     OBJ       9
    C9(9)     R0        -7
    C9(9)     R1        15
    C9(9)     R2        1
    C9(9)     R3        13
    C9(9)     R4        17
    C9(9)     R5        6
    C9(9)     R7        -1
    C9(9)     R10       3
    C9(9)     R13       19
    C10(12)   OBJ       -10
    C10(12)   R0        -4
    C10(12)   R1        13
    C10(12)   R2        14
    C10(12)   R3        5
    C10(12)   R5        3
    C10(12)   R6        1
    C10(12)   R7        2
    C10(12)   R8        10
    C10(12)   R9        14
    C10(12)   R12       6
    C10(12)   R13       -1
    C10(12)   R14       2
    C11(11)   OBJ       3
    C11(11)   R0        -9
    C11(11)   R2        1
    C11(11)   R3        19
    C11(11)   R5        -1
    C11(11)   R6        17
    C11(11)   R8        11
    C11(11)   R9        8
    C11(11)   R10       18
    C11(11)   R11       10
    C11(11)   R12       4
    C11(11)   R14       18
    C12(10)   OBJ       -2
    C12(10)   R0        -9
    C12(10)   R1        15
    C12(10)   R3        15
    C12(10)   R4        11
    C12(10)   R7        10
    C12(10)   R9        17
    C12(10)   R10       17
    C12(10)   R11       6
    C12(10)   R13       13
    C12(10)   R14       7
    C13(9)    OBJ       1
    C13(9)    R0        -5
    C13(9)    R3        5
    C13(9)    R4        15
    C13(9)    R5        3
    C13(9)    R7        9
    C13(9)    R9        6
    C13(9)    R10       6
    C13(9)    R11       17
    C13(9)    R12       9
    C14(10)   OBJ       8
    C14(10)   R0        -4
    C14(10)   R2        14
    C14(10)   R3        6
    C14(10)   R4        1
    C14(10)   R7        11
    C14(10)   R9        1
    C14(10)   R10       14
    C14(10)   R12       14
    C14(10)   R13       4
    C14(10)   R14       7
    C15(1)    R1        1
    C16(1)    R2        1
    C17(1)    R3        1
    C18(1)    R4        1
    C19(1)    R5        1
    C20(1)    R6        1
    C21(1)    R7        1
    C22(1)    R8        1
    C23(1)    R9        1
    C24(1)    R10       1
    C25(1)    R11       1
    C26(1)    R12       1
    C27(1)    R13       1
    C28(1)    R14       1
    C29(1)    R15       1
RHS
    RHS1      R0        1.0771428571428571e+02
    RHS1      R1        61
    RHS1      R2        68
    RHS1      R3        78
    RHS1      R4        72
    RHS1      R5        69
    RHS1      R6        56
    RHS1      R7        62
    RHS1      R8        79
    RHS1      R9        61
    RHS1      R10       85
    RHS1      R11       50
    RHS1      R12       51
    RHS1      R13       54
    RHS1      R14       76
    RHS1      R15       3
BOUNDS
 UP BND1      I0(5)     1
 UP BND1      I1(7)     1
 UP BND1      I2(8)     1
 UP BND1      I3(6)     1
 UP BND1      I4(10)    1
 UP BND1      I5(5)     1
 UP BND1      I6(8)     1
 UP BND1      I7(9)     1
 UP BND1      I8(8)     1
ENDATA
